%Chk=caffeine.chk
# RHF/6-31G(d) Opt Freq

caffeine (Auto-generated)

0 1
O
O  1    4.691874
N  2    2.326824  1   61.871725
N  3    3.502704  2  133.552130  1   -0.022307
N  4    3.687333  3   39.265858  2    0.013765
N  5    4.088652  4   32.805270  3    0.008629
C  6    2.265191  5   28.293109  4   -0.033297
C  7    1.368203  6   34.167495  5   -0.045559
C  8    2.474579  7   28.352646  6  179.958350
C  9    2.558341  8   57.546733  7  179.975672
C  10    4.510543  9   52.957350  8    0.011881
C  11    4.205925  10   33.001029  9  179.986125
C  12    6.047531  11   19.344985  10   -0.031914
C  13    5.576642  12   50.325752  11  179.994341
H  14    6.926910  13   22.799981  12    0.009165
H  15    4.922029  14   53.208187  13  -166.871328
H  16    1.778609  15  126.541266  14  -42.747589
H  17    1.778594  16   60.402090  15  -46.081932
H  18    6.641699  17  116.069889  16   62.756710
H  19    1.787734  18   84.463586  17    7.620615
H  20    1.799600  19   59.780693  18   77.662239
H  21    5.121143  20   79.868625  19  -153.857509
H  22    1.783312  21  110.600378  20  127.459582
H  23    1.773002  22   60.190398  21  -115.681576

