%Chk=fructose.chk
# RHF/6-31G(d) Opt Freq

fructose (Auto-generated)

0 1
O
O  1    3.676665
O  2    2.777829  1   40.060217
O  3    4.301783  2   41.866285  1   58.453468
O  4    2.749466  3   75.974285  2  -122.821876
O  5    5.433767  4   90.893544  3   20.813433
C  6    3.756583  5   31.457673  4    8.487435
C  7    1.541280  6   21.426901  5  -65.078412
C  8    2.526278  7   34.571837  6  173.416290
C  9    1.528306  8   87.919501  7  -131.633411
C  10    1.524121  9  110.641296  8  -24.916085
C  11    3.710902  10  101.649187  9   38.768753
H  12    2.726604  11   59.870349  10   11.421327
H  13    3.059595  12   94.798896  11  -49.168453
H  14    2.473031  13   86.645241  12  112.130336
H  15    2.532328  14  100.502726  13  -65.485619
H  16    1.770528  15   68.197525  14  -34.883480
H  17    4.611457  16   77.805200  15  103.124313
H  18    1.784779  17   85.039323  16  178.135687
H  19    2.181454  18   96.248143  17   81.225321
H  20    3.729367  19   43.103130  18  -102.925048
H  21    5.628975  20   40.095759  19  129.580086
H  22    2.048987  21   89.913676  20  -145.131488
H  23    5.979404  22   85.662552  21   20.705848

