%Chk=glucose.chk
# RHF/6-31G(d) Opt Freq

glucose (Auto-generated)

0 1
O
O  1    3.662435
O  2    2.890640  1   76.613327
O  3    2.946294  2  110.494819  1  -33.433222
O  4    2.829951  3  111.916898  2   51.072915
O  5    4.821704  4  106.782977  3  -37.557648
C  6    3.755676  5   56.686656  4   21.285524
C  7    1.528864  6  131.567550  5  -30.309819
C  8    2.518022  7   34.628103  6   -2.498548
C  9    2.885272  8   31.956270  7  134.750487
C  10    1.528657  9   55.269352  8  153.799534
C  11    3.687139  10  102.681638  9   11.488469
H  12    2.737881  11   60.848771  10   12.329384
H  13    3.062978  12   95.499591  11  -49.508692
H  14    2.756363  13   63.856889  12    4.950179
H  15    4.023455  14   49.399695  13   51.324768
H  16    3.093281  15   36.511322  14   91.321315
H  17    4.577277  16   69.073944  15   29.752097
H  18    1.779883  17   83.478997  16  -127.332807
H  19    2.913184  18  111.277010  17   48.683325
H  20    2.859456  19  121.142952  18   22.229164
H  21    3.997587  20   81.873035  19  -96.868664
H  22    3.481360  21   94.815107  20   90.003676
H  23    4.578895  22   94.917685  21  -69.394838

